%%%mzn-stat: initTime=0.030899993
%%%mzn-stat: objective=202
%%%mzn-stat: nodes=1685635
%%%mzn-stat: restarts=728
%%%mzn-stat: peakDepth=1067
%%%mzn-stat: solveTime=735.858898668
%%%mzn-stat: variables=2560
%%%mzn-stat: propagators=2118
%%%mzn-stat: failures=1075292
%%%mzn-stat: propagations=69550218
%%%mzn-stat: nogoods=1075292
%%%mzn-stat: AverageConflictSize=53.90404466879694
%%%mzn-stat: NumUnitNogoodsLearned=201
%%%mzn-stat: AverageLearnedNogoodLength=76.71164111701752
%%%mzn-stat: AverageBacktrackAmount=0
%%%mzn-stat: AverageLbd=35.91253538573709
%%%mzn-stat-end
maxleg = 202;
succ = array1d(1..100,[77, 48, 91, 44, 95, 3, 38, 49, 84, 60, 46, 19, 62, 7, 28, 35, 78, 94, 42, 43, 33, 100, 71, 65, 68, 81, 89, 36, 2, 26, 59, 88, 20, 93, 11, 14, 87, 80, 56, 21, 39, 98, 92, 25, 70, 18, 6, 90, 53, 31, 79, 30, 63, 73, 57, 34, 58, 74, 82, 5, 97, 76, 51, 13, 72, 75, 29, 83, 61, 24, 86, 4, 47, 8, 10, 40, 37, 15, 17, 96, 41, 55, 66, 64, 67, 54, 16, 99, 69, 12, 50, 23, 9, 52, 85, 32, 1, 22, 45, 27]);
% time elapsed: 736.15 s
----------
==========
% time elapsed: 736.15 s
%%%mzn-stat: initTime=0.030899993
%%%mzn-stat: objective=202
%%%mzn-stat: nodes=1685635
%%%mzn-stat: restarts=728
%%%mzn-stat: peakDepth=1067
%%%mzn-stat: solveTime=735.858902138
%%%mzn-stat: variables=2560
%%%mzn-stat: propagators=2118
%%%mzn-stat: failures=1075292
%%%mzn-stat: propagations=69550218
%%%mzn-stat: nogoods=1075292
%%%mzn-stat: AverageConflictSize=53.90404466879694
%%%mzn-stat: NumUnitNogoodsLearned=201
%%%mzn-stat: AverageLearnedNogoodLength=76.71164111701752
%%%mzn-stat: AverageBacktrackAmount=0
%%%mzn-stat: AverageLbd=35.91253538573709
%%%mzn-stat-end
